4
999 16  11  6
8   999 13  16
4   7   999 9
5   12  2   999

4
999 10  15  20
5   999 9   10
6   13  999 12
8   8   9   999

6
999 16  999 999 999 34
16  999 21  9   999 999
999 21  999 12  999 7
999 9   12  999 15  999
999 999 999 15  999 16
34  999 7   999 16  999
